(set-logic QF_S)
(declare-fun var0 () String)
(declare-fun var1 () String)
(declare-fun var2 () String)
(declare-fun var3 () Int)
(declare-fun var4 () Int)
(declare-fun var5 () Int)
(declare-fun var6 () Bool)
(declare-fun var7 () Bool)
(declare-fun var8 () Bool)
(assert (not (str.prefixof (str.replace var0 var0 var0) (str.replace "%oag&Y3$f1" var2 var0))))
(assert (str.prefixof (str.substr (str.replace var2 var1 var1) (str.len var0) (str.indexof var1 var0 var5)) (str.at (str.at var0 8) (str.len var1))))
(assert (str.suffixof (str.replace var1 var2 var0) (str.substr var1 var4 var5)))
(assert (not (str.prefixof var0 var1)))
(check-sat)